/* Objective function */
max: ;

/* Constraints */
R1: +x6 <= 0;
R2: +x2 <= 0;
R3: +x2 <= 0;
R4: +x7 <= 0;
R5: +x5 <= 0;
R6: +x8 <= 0;
R7: +x5 <= 0;
R8: +x9 <= 0;
R9: +x10 <= 0;
R10: +x11 <= 0;
R11: +x4 <= 0;
R12: +x4 <= 0;
R13: +x4 <= 0;
R14: +x4 <= 0;
R15: +x3 <= 0;
R16: +x3 <= 0;
R17: +x3 <= 0;
R18: +x3 <= 0;
R19: +x3 <= 0;
R20: +x12 <= 0;
R21: +x1 <= 0;
R22: +x1 <= 0;
R23: +x1 <= 0;
R24: +x2 <= 0;
R25: +x2 <= 0;
R26: +x2 <= 0;
R27: +x1 <= 0;
0 x1 <= 1;
R29: +x1 <= 0;
R30: +x6 >= 0;
R31: +x6 >= 0;
R32: +x2 >= 0;
R33: +x7 >= 0;
R34: +x6 >= 0;
R35: +x8 >= 0;
R36: +x5 >= 0;
R37: +x9 >= 0;
R38: +x10 >= 0;
R39: +x11 >= 0;
R40: +x11 >= 0;
R41: +x11 >= 0;
R42: +x11 >= 0;
R43: +x4 >= 0;
R44: +x4 >= 0;
R45: +x4 >= 0;
R46: +x4 >= 0;
R47: +x4 >= 0;
R48: +x3 >= 0;
R49: +x12 >= 0;
R50: +x12 >= 0;
R51: +x12 >= 0;
R52: +x6 >= 0;
R53: +x2 >= 0;
R54: +x2 >= 0;
R55: +x1 >= 0;
R56: +x1 >= 0;
0 x1 >= 1;
R58: +x1 >= 0;
R59: +x2 >= 0;
R60: +x3 >= 0;
R61: +x4 >= 0;
R62: +x5 >= 0;
R63: +x6 >= 0;
R64: +x7 >= 0;
R65: +x8 >= 0;
R66: +x9 >= 0;
R67: +x10 >= 0;
R68: +x11 >= 0;
R69: +x12 >= 0;
